75
1 0 5
2 0 3
2 1 1
3 0 5
3 1 5
3 2 2
4 0 1
4 1 5
4 2 1
4 3 5
5 0 3
5 1 5
5 2 4
5 3 2
5 4 3
6 0 1
6 1 1
6 2 2
6 3 3
6 4 1
6 5 2
7 0 3
7 1 5
7 2 5
7 3 2
7 4 1
7 5 2
7 6 1
8 0 2
8 1 3
8 2 5
8 3 3
8 4 3
8 5 5
8 6 4
8 7 5
9 0 4
9 1 3
9 2 3
9 3 3
9 4 3
9 5 5
9 6 1
9 7 1
9 8 1
10 0 5
10 1 5
10 2 4
10 3 5
10 4 5
10 5 3
10 6 5
10 7 1
10 8 5
10 9 4
11 0 4
11 1 3
11 2 4
11 3 4
11 4 4
11 5 5
11 6 4
11 7 5
11 8 1
11 9 2
11 10 1
12 0 2
12 1 1
12 2 1
12 3 4
12 4 1
12 5 3
12 6 5
12 7 2
12 8 4
12 9 5
12 10 2
12 11 2
13 0 2
13 1 3
13 2 4
13 3 4
13 4 5
13 5 4
13 6 4
13 7 5
13 8 4
13 9 2
13 10 5
13 11 2
13 12 3
14 0 1
14 1 5
14 2 3
14 3 2
14 4 3
14 5 2
14 6 1
14 7 2
14 8 2
14 9 1
14 10 5
14 11 3
14 12 1
14 13 2
15 0 3
15 1 3
15 2 3
15 3 5
15 4 3
15 5 2
15 6 5
15 7 2
15 8 2
15 9 3
15 10 1
15 11 3
15 12 4
15 13 1
15 14 4
16 0 2
16 1 3
16 2 3
16 3 1
16 4 4
16 5 2
16 6 5
16 7 5
16 8 3
16 9 3
16 10 1
16 11 3
16 12 4
16 13 3
16 14 1
16 15 5
17 0 5
17 1 4
17 2 2
17 3 2
17 4 3
17 5 5
17 6 1
17 7 1
17 8 2
17 9 4
17 10 4
17 11 2
17 12 1
17 13 2
17 14 5
17 15 3
17 16 2
18 0 3
18 1 2
18 2 3
18 3 5
18 4 4
18 5 1
18 6 4
18 7 2
18 8 3
18 9 1
18 10 5
18 11 1
18 12 1
18 13 5
18 14 4
18 15 5
18 16 3
18 17 1
19 0 4
19 1 3
19 2 3
19 3 5
19 4 2
19 5 3
19 6 5
19 7 2
19 8 2
19 9 4
19 10 1
19 11 1
19 12 2
19 13 5
19 14 5
19 15 2
19 16 5
19 17 1
19 18 2
20 0 2
20 1 5
20 2 1
20 3 2
20 4 3
20 5 2
20 6 5
20 7 3
20 8 1
20 9 3
20 10 2
20 11 3
20 12 3
20 13 3
20 14 3
20 15 4
20 16 2
20 17 5
20 18 5
20 19 2
21 0 2
21 1 2
21 2 5
21 3 1
21 4 2
21 5 1
21 6 4
21 7 4
21 8 2
21 9 1
21 10 5
21 11 5
21 12 4
21 13 5
21 14 1
21 15 1
21 16 1
21 17 5
21 18 3
21 19 3
21 20 5
22 0 3
22 1 2
22 2 1
22 3 2
22 4 2
22 5 5
22 6 2
22 7 4
22 8 3
22 9 1
22 10 5
22 11 2
22 12 4
22 13 3
22 14 5
22 15 3
22 16 5
22 17 2
22 18 5
22 19 3
22 20 2
22 21 3
23 0 4
23 1 1
23 2 3
23 3 5
23 4 1
23 5 3
23 6 5
23 7 4
23 8 3
23 9 3
23 10 1
23 11 4
23 12 1
23 13 5
23 14 3
23 15 1
23 16 1
23 17 5
23 18 3
23 19 4
23 20 4
23 21 2
23 22 4
24 0 2
24 1 3
24 2 3
24 3 1
24 4 2
24 5 3
24 6 2
24 7 4
24 8 2
24 9 1
24 10 5
24 11 2
24 12 2
24 13 4
24 14 5
24 15 1
24 16 4
24 17 5
24 18 5
24 19 3
24 20 1
24 21 1
24 22 2
24 23 2
25 0 4
25 1 2
25 2 3
25 3 2
25 4 3
25 5 4
25 6 1
25 7 3
25 8 1
25 9 4
25 10 4
25 11 2
25 12 2
25 13 3
25 14 1
25 15 4
25 16 2
25 17 4
25 18 2
25 19 3
25 20 3
25 21 3
25 22 3
25 23 5
25 24 3
26 0 1
26 1 5
26 2 1
26 3 4
26 4 4
26 5 3
26 6 5
26 7 4
26 8 4
26 9 2
26 10 4
26 11 3
26 12 4
26 13 5
26 14 2
26 15 4
26 16 2
26 17 1
26 18 1
26 19 2
26 20 1
26 21 5
26 22 3
26 23 3
26 24 5
26 25 4
27 0 2
27 1 2
27 2 1
27 3 1
27 4 1
27 5 2
27 6 1
27 7 1
27 8 5
27 9 4
27 10 3
27 11 5
27 12 5
27 13 4
27 14 2
27 15 4
27 16 1
27 17 1
27 18 3
27 19 2
27 20 3
27 21 2
27 22 2
27 23 5
27 24 2
27 25 2
27 26 1
28 0 2
28 1 2
28 2 3
28 3 2
28 4 2
28 5 1
28 6 3
28 7 4
28 8 3
28 9 3
28 10 2
28 11 3
28 12 2
28 13 3
28 14 2
28 15 4
28 16 3
28 17 1
28 18 2
28 19 4
28 20 5
28 21 5
28 22 4
28 23 2
28 24 5
28 25 5
28 26 3
28 27 5
29 0 3
29 1 1
29 2 5
29 3 4
29 4 1
29 5 4
29 6 1
29 7 5
29 8 2
29 9 2
29 10 3
29 11 4
29 12 5
29 13 4
29 14 3
29 15 5
29 16 2
29 17 1
29 18 1
29 19 1
29 20 1
29 21 5
29 22 3
29 23 5
29 24 2
29 25 1
29 26 1
29 27 1
29 28 4
30 0 1
30 1 5
30 2 1
30 3 2
30 4 5
30 5 3
30 6 1
30 7 3
30 8 2
30 9 3
30 10 5
30 11 1
30 12 5
30 13 1
30 14 2
30 15 5
30 16 2
30 17 5
30 18 4
30 19 3
30 20 1
30 21 4
30 22 5
30 23 5
30 24 3
30 25 2
30 26 2
30 27 5
30 28 4
30 29 2
31 0 4
31 1 3
31 2 3
31 3 1
31 4 3
31 5 3
31 6 4
31 7 5
31 8 4
31 9 1
31 10 3
31 11 1
31 12 5
31 13 2
31 14 4
31 15 2
31 16 4
31 17 4
31 18 4
31 19 3
31 20 2
31 21 4
31 22 3
31 23 3
31 24 4
31 25 4
31 26 4
31 27 2
31 28 3
31 29 2
31 30 4
32 0 1
32 1 4
32 2 4
32 3 4
32 4 2
32 5 4
32 6 5
32 7 2
32 8 1
32 9 5
32 10 3
32 11 2
32 12 1
32 13 1
32 14 1
32 15 2
32 16 1
32 17 4
32 18 1
32 19 2
32 20 2
32 21 1
32 22 2
32 23 4
32 24 5
32 25 4
32 26 2
32 27 4
32 28 5
32 29 4
32 30 3
32 31 2
33 0 3
33 1 5
33 2 2
33 3 1
33 4 3
33 5 1
33 6 3
33 7 2
33 8 4
33 9 4
33 10 5
33 11 3
33 12 5
33 13 4
33 14 2
33 15 2
33 16 4
33 17 1
33 18 3
33 19 3
33 20 4
33 21 2
33 22 5
33 23 1
33 24 2
33 25 3
33 26 1
33 27 2
33 28 5
33 29 2
33 30 5
33 31 1
33 32 2
34 0 4
34 1 5
34 2 5
34 3 5
34 4 4
34 5 1
34 6 1
34 7 2
34 8 3
34 9 2
34 10 5
34 11 2
34 12 3
34 13 5
34 14 5
34 15 4
34 16 4
34 17 5
34 18 4
34 19 5
34 20 3
34 21 5
34 22 3
34 23 5
34 24 5
34 25 3
34 26 1
34 27 2
34 28 5
34 29 3
34 30 1
34 31 1
34 32 2
34 33 4
35 0 2
35 1 2
35 2 1
35 3 1
35 4 5
35 5 5
35 6 2
35 7 5
35 8 4
35 9 5
35 10 4
35 11 4
35 12 5
35 13 5
35 14 5
35 15 3
35 16 5
35 17 1
35 18 3
35 19 3
35 20 1
35 21 4
35 22 3
35 23 1
35 24 1
35 25 1
35 26 5
35 27 3
35 28 1
35 29 2
35 30 1
35 31 5
35 32 3
35 33 5
35 34 3
36 0 5
36 1 4
36 2 2
36 3 4
36 4 2
36 5 5
36 6 3
36 7 4
36 8 1
36 9 3
36 10 4
36 11 3
36 12 1
36 13 1
36 14 4
36 15 5
36 16 5
36 17 5
36 18 1
36 19 2
36 20 5
36 21 5
36 22 4
36 23 3
36 24 5
36 25 5
36 26 3
36 27 5
36 28 1
36 29 3
36 30 3
36 31 4
36 32 4
36 33 2
36 34 5
36 35 2
37 0 4
37 1 2
37 2 1
37 3 5
37 4 4
37 5 4
37 6 2
37 7 5
37 8 2
37 9 3
37 10 3
37 11 5
37 12 2
37 13 4
37 14 5
37 15 5
37 16 5
37 17 3
37 18 5
37 19 5
37 20 4
37 21 5
37 22 4
37 23 2
37 24 2
37 25 5
37 26 1
37 27 4
37 28 1
37 29 4
37 30 4
37 31 4
37 32 4
37 33 2
37 34 2
37 35 1
37 36 4
38 0 1
38 1 4
38 2 3
38 3 1
38 4 1
38 5 1
38 6 1
38 7 4
38 8 3
38 9 4
38 10 4
38 11 2
38 12 2
38 13 4
38 14 4
38 15 5
38 16 1
38 17 5
38 18 1
38 19 2
38 20 3
38 21 3
38 22 1
38 23 4
38 24 3
38 25 2
38 26 1
38 27 3
38 28 5
38 29 3
38 30 4
38 31 3
38 32 3
38 33 3
38 34 1
38 35 3
38 36 2
38 37 5
39 0 5
39 1 5
39 2 5
39 3 3
39 4 2
39 5 5
39 6 5
39 7 1
39 8 4
39 9 3
39 10 2
39 11 2
39 12 4
39 13 3
39 14 5
39 15 3
39 16 3
39 17 2
39 18 3
39 19 2
39 20 3
39 21 2
39 22 2
39 23 3
39 24 1
39 25 4
39 26 4
39 27 5
39 28 1
39 29 3
39 30 2
39 31 4
39 32 2
39 33 2
39 34 2
39 35 4
39 36 5
39 37 4
39 38 4
40 0 2
40 1 1
40 2 3
40 3 1
40 4 1
40 5 1
40 6 2
40 7 2
40 8 3
40 9 3
40 10 3
40 11 1
40 12 2
40 13 3
40 14 2
40 15 3
40 16 3
40 17 5
40 18 3
40 19 5
40 20 3
40 21 5
40 22 3
40 23 2
40 24 1
40 25 2
40 26 1
40 27 2
40 28 4
40 29 4
40 30 5
40 31 4
40 32 5
40 33 1
40 34 2
40 35 4
40 36 1
40 37 3
40 38 2
40 39 1
41 0 3
41 1 1
41 2 2
41 3 5
41 4 3
41 5 5
41 6 2
41 7 4
41 8 3
41 9 3
41 10 5
41 11 3
41 12 5
41 13 5
41 14 5
41 15 2
41 16 3
41 17 4
41 18 5
41 19 2
41 20 4
41 21 3
41 22 2
41 23 4
41 24 1
41 25 1
41 26 5
41 27 1
41 28 5
41 29 2
41 30 4
41 31 1
41 32 5
41 33 3
41 34 4
41 35 4
41 36 3
41 37 1
41 38 4
41 39 1
41 40 4
42 0 5
42 1 4
42 2 5
42 3 3
42 4 2
42 5 4
42 6 3
42 7 3
42 8 3
42 9 4
42 10 2
42 11 1
42 12 4
42 13 1
42 14 5
42 15 2
42 16 2
42 17 4
42 18 5
42 19 3
42 20 5
42 21 2
42 22 1
42 23 4
42 24 1
42 25 5
42 26 5
42 27 4
42 28 2
42 29 5
42 30 4
42 31 2
42 32 3
42 33 4
42 34 4
42 35 5
42 36 3
42 37 1
42 38 2
42 39 1
42 40 4
42 41 5
43 0 3
43 1 2
43 2 1
43 3 2
43 4 3
43 5 3
43 6 2
43 7 1
43 8 2
43 9 4
43 10 1
43 11 1
43 12 1
43 13 3
43 14 1
43 15 4
43 16 2
43 17 1
43 18 3
43 19 4
43 20 3
43 21 2
43 22 3
43 23 1
43 24 2
43 25 4
43 26 2
43 27 3
43 28 2
43 29 1
43 30 1
43 31 4
43 32 3
43 33 1
43 34 5
43 35 3
43 36 4
43 37 1
43 38 2
43 39 1
43 40 3
43 41 5
43 42 2
44 0 5
44 1 5
44 2 3
44 3 3
44 4 4
44 5 4
44 6 3
44 7 2
44 8 4
44 9 3
44 10 5
44 11 4
44 12 2
44 13 1
44 14 4
44 15 1
44 16 3
44 17 5
44 18 3
44 19 4
44 20 3
44 21 5
44 22 2
44 23 1
44 24 3
44 25 5
44 26 5
44 27 2
44 28 1
44 29 4
44 30 5
44 31 5
44 32 5
44 33 1
44 34 5
44 35 5
44 36 3
44 37 4
44 38 3
44 39 3
44 40 2
44 41 3
44 42 1
44 43 5
45 0 5
45 1 4
45 2 2
45 3 2
45 4 5
45 5 1
45 6 2
45 7 3
45 8 5
45 9 2
45 10 5
45 11 5
45 12 3
45 13 1
45 14 4
45 15 4
45 16 4
45 17 3
45 18 2
45 19 5
45 20 4
45 21 3
45 22 3
45 23 1
45 24 5
45 25 3
45 26 1
45 27 2
45 28 3
45 29 4
45 30 1
45 31 2
45 32 4
45 33 1
45 34 1
45 35 5
45 36 5
45 37 3
45 38 5
45 39 1
45 40 5
45 41 5
45 42 4
45 43 1
45 44 4
46 0 3
46 1 4
46 2 1
46 3 2
46 4 3
46 5 1
46 6 1
46 7 2
46 8 5
46 9 2
46 10 1
46 11 5
46 12 2
46 13 4
46 14 5
46 15 4
46 16 2
46 17 5
46 18 2
46 19 5
46 20 5
46 21 4
46 22 4
46 23 3
46 24 1
46 25 1
46 26 1
46 27 4
46 28 5
46 29 1
46 30 2
46 31 5
46 32 5
46 33 1
46 34 1
46 35 2
46 36 2
46 37 5
46 38 1
46 39 2
46 40 1
46 41 5
46 42 2
46 43 4
46 44 1
46 45 2
47 0 5
47 1 4
47 2 3
47 3 3
47 4 1
47 5 4
47 6 3
47 7 4
47 8 5
47 9 2
47 10 4
47 11 5
47 12 5
47 13 5
47 14 4
47 15 1
47 16 5
47 17 4
47 18 1
47 19 2
47 20 5
47 21 5
47 22 1
47 23 5
47 24 4
47 25 5
47 26 2
47 27 4
47 28 2
47 29 4
47 30 3
47 31 2
47 32 3
47 33 1
47 34 3
47 35 3
47 36 3
47 37 5
47 38 4
47 39 2
47 40 5
47 41 5
47 42 3
47 43 2
47 44 2
47 45 4
47 46 2
48 0 2
48 1 2
48 2 1
48 3 1
48 4 2
48 5 3
48 6 4
48 7 2
48 8 4
48 9 3
48 10 2
48 11 2
48 12 3
48 13 2
48 14 3
48 15 5
48 16 5
48 17 4
48 18 3
48 19 5
48 20 1
48 21 1
48 22 5
48 23 1
48 24 2
48 25 5
48 26 2
48 27 1
48 28 4
48 29 2
48 30 3
48 31 5
48 32 3
48 33 2
48 34 4
48 35 2
48 36 3
48 37 1
48 38 5
48 39 3
48 40 4
48 41 3
48 42 2
48 43 2
48 44 1
48 45 4
48 46 3
48 47 3
49 0 2
49 1 1
49 2 2
49 3 5
49 4 5
49 5 3
49 6 5
49 7 3
49 8 5
49 9 3
49 10 1
49 11 2
49 12 4
49 13 1
49 14 3
49 15 2
49 16 4
49 17 3
49 18 4
49 19 2
49 20 3
49 21 1
49 22 1
49 23 1
49 24 2
49 25 2
49 26 2
49 27 3
49 28 4
49 29 3
49 30 4
49 31 3
49 32 4
49 33 1
49 34 1
49 35 1
49 36 2
49 37 1
49 38 3
49 39 5
49 40 2
49 41 5
49 42 4
49 43 4
49 44 5
49 45 3
49 46 4
49 47 5
49 48 1
50 0 1
50 1 3
50 2 3
50 3 4
50 4 2
50 5 3
50 6 5
50 7 5
50 8 4
50 9 4
50 10 4
50 11 2
50 12 1
50 13 5
50 14 2
50 15 5
50 16 4
50 17 2
50 18 5
50 19 2
50 20 3
50 21 2
50 22 2
50 23 5
50 24 4
50 25 2
50 26 4
50 27 4
50 28 5
50 29 5
50 30 4
50 31 1
50 32 4
50 33 3
50 34 1
50 35 5
50 36 1
50 37 5
50 38 5
50 39 2
50 40 2
50 41 3
50 42 4
50 43 4
50 44 5
50 45 1
50 46 3
50 47 3
50 48 4
50 49 1
51 0 3
51 1 5
51 2 1
51 3 5
51 4 2
51 5 2
51 6 5
51 7 1
51 8 1
51 9 3
51 10 2
51 11 1
51 12 1
51 13 2
51 14 3
51 15 1
51 16 5
51 17 3
51 18 3
51 19 1
51 20 2
51 21 2
51 22 4
51 23 3
51 24 5
51 25 3
51 26 3
51 27 3
51 28 1
51 29 2
51 30 5
51 31 5
51 32 3
51 33 3
51 34 1
51 35 2
51 36 3
51 37 1
51 38 5
51 39 5
51 40 3
51 41 1
51 42 5
51 43 3
51 44 2
51 45 3
51 46 2
51 47 5
51 48 1
51 49 4
51 50 3
52 0 2
52 1 3
52 2 5
52 3 4
52 4 1
52 5 5
52 6 1
52 7 4
52 8 1
52 9 5
52 10 5
52 11 1
52 12 5
52 13 4
52 14 2
52 15 3
52 16 2
52 17 3
52 18 4
52 19 3
52 20 2
52 21 4
52 22 3
52 23 5
52 24 5
52 25 3
52 26 5
52 27 2
52 28 5
52 29 2
52 30 3
52 31 4
52 32 3
52 33 5
52 34 2
52 35 2
52 36 2
52 37 4
52 38 4
52 39 4
52 40 3
52 41 3
52 42 4
52 43 3
52 44 1
52 45 1
52 46 1
52 47 4
52 48 5
52 49 3
52 50 1
52 51 2
53 0 4
53 1 1
53 2 4
53 3 5
53 4 3
53 5 3
53 6 5
53 7 2
53 8 4
53 9 5
53 10 3
53 11 4
53 12 5
53 13 2
53 14 5
53 15 3
53 16 5
53 17 2
53 18 3
53 19 2
53 20 5
53 21 5
53 22 1
53 23 4
53 24 3
53 25 1
53 26 5
53 27 4
53 28 5
53 29 4
53 30 4
53 31 4
53 32 2
53 33 3
53 34 1
53 35 2
53 36 2
53 37 1
53 38 3
53 39 4
53 40 3
53 41 2
53 42 1
53 43 2
53 44 3
53 45 4
53 46 3
53 47 2
53 48 3
53 49 5
53 50 3
53 51 1
53 52 5
54 0 5
54 1 4
54 2 4
54 3 4
54 4 3
54 5 4
54 6 5
54 7 1
54 8 2
54 9 2
54 10 2
54 11 4
54 12 1
54 13 3
54 14 1
54 15 2
54 16 5
54 17 5
54 18 5
54 19 4
54 20 3
54 21 5
54 22 1
54 23 4
54 24 1
54 25 5
54 26 4
54 27 1
54 28 3
54 29 5
54 30 4
54 31 4
54 32 3
54 33 1
54 34 1
54 35 3
54 36 1
54 37 2
54 38 5
54 39 5
54 40 5
54 41 4
54 42 2
54 43 5
54 44 4
54 45 5
54 46 1
54 47 5
54 48 2
54 49 2
54 50 2
54 51 2
54 52 2
54 53 2
55 0 5
55 1 1
55 2 1
55 3 3
55 4 2
55 5 2
55 6 5
55 7 1
55 8 3
55 9 1
55 10 1
55 11 5
55 12 1
55 13 3
55 14 3
55 15 3
55 16 5
55 17 2
55 18 1
55 19 2
55 20 4
55 21 5
55 22 3
55 23 2
55 24 3
55 25 1
55 26 2
55 27 4
55 28 4
55 29 4
55 30 3
55 31 4
55 32 4
55 33 3
55 34 3
55 35 5
55 36 5
55 37 4
55 38 1
55 39 5
55 40 1
55 41 2
55 42 5
55 43 1
55 44 1
55 45 5
55 46 3
55 47 1
55 48 3
55 49 2
55 50 2
55 51 5
55 52 5
55 53 1
55 54 5
56 0 5
56 1 2
56 2 4
56 3 2
56 4 5
56 5 5
56 6 5
56 7 3
56 8 4
56 9 2
56 10 3
56 11 1
56 12 4
56 13 1
56 14 3
56 15 5
56 16 4
56 17 5
56 18 2
56 19 3
56 20 5
56 21 2
56 22 5
56 23 3
56 24 1
56 25 3
56 26 4
56 27 2
56 28 3
56 29 2
56 30 1
56 31 1
56 32 3
56 33 5
56 34 4
56 35 4
56 36 2
56 37 4
56 38 3
56 39 1
56 40 5
56 41 3
56 42 3
56 43 3
56 44 5
56 45 5
56 46 4
56 47 5
56 48 5
56 49 2
56 50 2
56 51 2
56 52 3
56 53 4
56 54 5
56 55 2
57 0 1
57 1 4
57 2 2
57 3 2
57 4 1
57 5 2
57 6 1
57 7 3
57 8 4
57 9 3
57 10 2
57 11 2
57 12 1
57 13 2
57 14 4
57 15 2
57 16 5
57 17 3
57 18 2
57 19 2
57 20 4
57 21 5
57 22 1
57 23 3
57 24 2
57 25 4
57 26 1
57 27 3
57 28 1
57 29 3
57 30 1
57 31 5
57 32 4
57 33 2
57 34 4
57 35 3
57 36 4
57 37 5
57 38 3
57 39 4
57 40 4
57 41 5
57 42 4
57 43 3
57 44 3
57 45 4
57 46 1
57 47 5
57 48 2
57 49 5
57 50 1
57 51 3
57 52 2
57 53 2
57 54 2
57 55 5
57 56 1
58 0 1
58 1 2
58 2 1
58 3 4
58 4 5
58 5 3
58 6 5
58 7 5
58 8 4
58 9 3
58 10 3
58 11 4
58 12 5
58 13 2
58 14 1
58 15 5
58 16 3
58 17 1
58 18 3
58 19 2
58 20 5
58 21 3
58 22 5
58 23 5
58 24 5
58 25 4
58 26 1
58 27 2
58 28 3
58 29 4
58 30 4
58 31 4
58 32 4
58 33 1
58 34 5
58 35 5
58 36 2
58 37 3
58 38 2
58 39 4
58 40 3
58 41 4
58 42 2
58 43 3
58 44 2
58 45 3
58 46 1
58 47 3
58 48 5
58 49 3
58 50 3
58 51 4
58 52 2
58 53 1
58 54 3
58 55 4
58 56 1
58 57 1
59 0 4
59 1 4
59 2 2
59 3 2
59 4 3
59 5 5
59 6 4
59 7 3
59 8 2
59 9 3
59 10 1
59 11 1
59 12 2
59 13 4
59 14 5
59 15 1
59 16 1
59 17 4
59 18 3
59 19 2
59 20 3
59 21 5
59 22 4
59 23 4
59 24 5
59 25 1
59 26 1
59 27 3
59 28 2
59 29 1
59 30 4
59 31 4
59 32 3
59 33 5
59 34 4
59 35 4
59 36 2
59 37 3
59 38 5
59 39 3
59 40 2
59 41 4
59 42 4
59 43 3
59 44 2
59 45 2
59 46 5
59 47 5
59 48 4
59 49 1
59 50 1
59 51 5
59 52 5
59 53 4
59 54 5
59 55 5
59 56 2
59 57 2
59 58 5
60 0 4
60 1 4
60 2 1
60 3 2
60 4 4
60 5 5
60 6 2
60 7 2
60 8 5
60 9 5
60 10 5
60 11 1
60 12 5
60 13 2
60 14 2
60 15 5
60 16 2
60 17 2
60 18 4
60 19 2
60 20 3
60 21 3
60 22 2
60 23 5
60 24 2
60 25 3
60 26 2
60 27 1
60 28 2
60 29 2
60 30 4
60 31 4
60 32 1
60 33 3
60 34 3
60 35 5
60 36 2
60 37 5
60 38 1
60 39 3
60 40 4
60 41 2
60 42 2
60 43 1
60 44 4
60 45 2
60 46 5
60 47 3
60 48 5
60 49 5
60 50 4
60 51 1
60 52 3
60 53 3
60 54 2
60 55 1
60 56 3
60 57 4
60 58 1
60 59 1
61 0 3
61 1 2
61 2 5
61 3 1
61 4 5
61 5 4
61 6 3
61 7 5
61 8 2
61 9 2
61 10 2
61 11 3
61 12 1
61 13 1
61 14 5
61 15 1
61 16 4
61 17 5
61 18 3
61 19 4
61 20 3
61 21 2
61 22 3
61 23 1
61 24 5
61 25 5
61 26 1
61 27 2
61 28 2
61 29 1
61 30 2
61 31 4
61 32 2
61 33 4
61 34 3
61 35 4
61 36 2
61 37 3
61 38 1
61 39 3
61 40 3
61 41 5
61 42 3
61 43 2
61 44 4
61 45 3
61 46 2
61 47 4
61 48 2
61 49 2
61 50 4
61 51 4
61 52 1
61 53 4
61 54 4
61 55 1
61 56 2
61 57 1
61 58 1
61 59 5
61 60 4
62 0 1
62 1 3
62 2 5
62 3 2
62 4 4
62 5 1
62 6 3
62 7 4
62 8 5
62 9 4
62 10 4
62 11 4
62 12 3
62 13 3
62 14 3
62 15 5
62 16 4
62 17 4
62 18 2
62 19 2
62 20 1
62 21 5
62 22 2
62 23 2
62 24 2
62 25 1
62 26 4
62 27 4
62 28 1
62 29 3
62 30 1
62 31 4
62 32 4
62 33 1
62 34 1
62 35 3
62 36 2
62 37 2
62 38 2
62 39 2
62 40 4
62 41 2
62 42 3
62 43 3
62 44 3
62 45 5
62 46 4
62 47 3
62 48 5
62 49 2
62 50 2
62 51 3
62 52 2
62 53 3
62 54 4
62 55 3
62 56 3
62 57 5
62 58 4
62 59 4
62 60 1
62 61 4
63 0 1
63 1 4
63 2 3
63 3 1
63 4 4
63 5 2
63 6 2
63 7 3
63 8 2
63 9 5
63 10 5
63 11 5
63 12 4
63 13 1
63 14 1
63 15 1
63 16 5
63 17 1
63 18 5
63 19 2
63 20 2
63 21 3
63 22 2
63 23 2
63 24 5
63 25 5
63 26 1
63 27 3
63 28 1
63 29 4
63 30 3
63 31 5
63 32 1
63 33 2
63 34 1
63 35 5
63 36 5
63 37 3
63 38 2
63 39 2
63 40 1
63 41 4
63 42 2
63 43 3
63 44 2
63 45 1
63 46 3
63 47 3
63 48 2
63 49 1
63 50 5
63 51 4
63 52 2
63 53 2
63 54 3
63 55 4
63 56 4
63 57 4
63 58 2
63 59 1
63 60 3
63 61 2
63 62 3
64 0 2
64 1 5
64 2 2
64 3 5
64 4 4
64 5 5
64 6 5
64 7 5
64 8 5
64 9 5
64 10 1
64 11 4
64 12 5
64 13 5
64 14 2
64 15 5
64 16 3
64 17 1
64 18 2
64 19 5
64 20 5
64 21 1
64 22 3
64 23 3
64 24 3
64 25 2
64 26 4
64 27 2
64 28 2
64 29 2
64 30 1
64 31 1
64 32 2
64 33 3
64 34 5
64 35 4
64 36 3
64 37 1
64 38 3
64 39 2
64 40 1
64 41 4
64 42 2
64 43 4
64 44 2
64 45 5
64 46 4
64 47 3
64 48 2
64 49 5
64 50 1
64 51 1
64 52 1
64 53 4
64 54 3
64 55 5
64 56 2
64 57 4
64 58 1
64 59 4
64 60 5
64 61 2
64 62 1
64 63 3
65 0 1
65 1 4
65 2 2
65 3 1
65 4 2
65 5 3
65 6 3
65 7 4
65 8 1
65 9 2
65 10 4
65 11 2
65 12 5
65 13 5
65 14 5
65 15 1
65 16 2
65 17 4
65 18 5
65 19 5
65 20 1
65 21 3
65 22 3
65 23 3
65 24 4
65 25 2
65 26 1
65 27 2
65 28 2
65 29 4
65 30 5
65 31 4
65 32 5
65 33 4
65 34 4
65 35 2
65 36 1
65 37 1
65 38 5
65 39 4
65 40 4
65 41 3
65 42 1
65 43 3
65 44 4
65 45 5
65 46 3
65 47 5
65 48 5
65 49 5
65 50 1
65 51 5
65 52 3
65 53 4
65 54 5
65 55 1
65 56 3
65 57 1
65 58 3
65 59 1
65 60 4
65 61 1
65 62 1
65 63 5
65 64 5
66 0 1
66 1 1
66 2 5
66 3 3
66 4 5
66 5 5
66 6 1
66 7 3
66 8 3
66 9 3
66 10 5
66 11 5
66 12 1
66 13 3
66 14 1
66 15 4
66 16 2
66 17 2
66 18 1
66 19 1
66 20 1
66 21 3
66 22 5
66 23 2
66 24 5
66 25 2
66 26 3
66 27 1
66 28 1
66 29 5
66 30 4
66 31 1
66 32 1
66 33 1
66 34 5
66 35 1
66 36 2
66 37 1
66 38 2
66 39 4
66 40 1
66 41 5
66 42 5
66 43 4
66 44 3
66 45 1
66 46 2
66 47 4
66 48 4
66 49 1
66 50 2
66 51 1
66 52 5
66 53 5
66 54 4
66 55 4
66 56 1
66 57 4
66 58 5
66 59 1
66 60 2
66 61 5
66 62 1
66 63 4
66 64 5
66 65 4
67 0 2
67 1 5
67 2 2
67 3 3
67 4 1
67 5 3
67 6 4
67 7 4
67 8 2
67 9 1
67 10 3
67 11 2
67 12 2
67 13 5
67 14 3
67 15 2
67 16 4
67 17 4
67 18 1
67 19 1
67 20 4
67 21 3
67 22 1
67 23 3
67 24 4
67 25 2
67 26 5
67 27 5
67 28 5
67 29 3
67 30 1
67 31 1
67 32 3
67 33 5
67 34 2
67 35 4
67 36 4
67 37 2
67 38 4
67 39 4
67 40 3
67 41 2
67 42 5
67 43 2
67 44 5
67 45 4
67 46 3
67 47 4
67 48 2
67 49 3
67 50 2
67 51 1
67 52 2
67 53 4
67 54 3
67 55 1
67 56 2
67 57 4
67 58 4
67 59 1
67 60 4
67 61 4
67 62 3
67 63 3
67 64 5
67 65 2
67 66 3
68 0 1
68 1 3
68 2 4
68 3 4
68 4 2
68 5 3
68 6 3
68 7 2
68 8 2
68 9 3
68 10 1
68 11 2
68 12 5
68 13 2
68 14 3
68 15 1
68 16 1
68 17 4
68 18 3
68 19 3
68 20 1
68 21 2
68 22 2
68 23 4
68 24 1
68 25 5
68 26 3
68 27 3
68 28 5
68 29 1
68 30 2
68 31 4
68 32 2
68 33 4
68 34 1
68 35 4
68 36 2
68 37 2
68 38 3
68 39 5
68 40 5
68 41 5
68 42 1
68 43 3
68 44 2
68 45 3
68 46 5
68 47 2
68 48 1
68 49 5
68 50 5
68 51 5
68 52 2
68 53 5
68 54 5
68 55 5
68 56 3
68 57 1
68 58 5
68 59 2
68 60 3
68 61 5
68 62 5
68 63 4
68 64 2
68 65 3
68 66 5
68 67 4
69 0 3
69 1 1
69 2 3
69 3 3
69 4 1
69 5 1
69 6 1
69 7 2
69 8 2
69 9 5
69 10 4
69 11 1
69 12 4
69 13 4
69 14 2
69 15 1
69 16 3
69 17 4
69 18 2
69 19 1
69 20 4
69 21 2
69 22 3
69 23 1
69 24 3
69 25 2
69 26 3
69 27 2
69 28 2
69 29 2
69 30 3
69 31 1
69 32 2
69 33 5
69 34 3
69 35 2
69 36 5
69 37 2
69 38 5
69 39 2
69 40 1
69 41 5
69 42 1
69 43 3
69 44 2
69 45 1
69 46 1
69 47 4
69 48 4
69 49 1
69 50 4
69 51 4
69 52 4
69 53 5
69 54 3
69 55 2
69 56 3
69 57 2
69 58 1
69 59 5
69 60 5
69 61 3
69 62 3
69 63 1
69 64 1
69 65 5
69 66 5
69 67 5
69 68 2
70 0 4
70 1 3
70 2 1
70 3 3
70 4 1
70 5 3
70 6 1
70 7 2
70 8 3
70 9 3
70 10 2
70 11 4
70 12 4
70 13 4
70 14 4
70 15 3
70 16 3
70 17 3
70 18 3
70 19 3
70 20 1
70 21 4
70 22 5
70 23 3
70 24 3
70 25 2
70 26 2
70 27 5
70 28 5
70 29 1
70 30 1
70 31 1
70 32 1
70 33 5
70 34 2
70 35 3
70 36 3
70 37 5
70 38 1
70 39 1
70 40 3
70 41 3
70 42 3
70 43 4
70 44 1
70 45 4
70 46 3
70 47 5
70 48 1
70 49 2
70 50 2
70 51 4
70 52 2
70 53 2
70 54 4
70 55 4
70 56 3
70 57 2
70 58 4
70 59 5
70 60 1
70 61 3
70 62 2
70 63 3
70 64 1
70 65 5
70 66 4
70 67 1
70 68 2
70 69 5
71 0 4
71 1 4
71 2 1
71 3 5
71 4 1
71 5 2
71 6 3
71 7 4
71 8 4
71 9 1
71 10 3
71 11 5
71 12 2
71 13 2
71 14 1
71 15 1
71 16 4
71 17 3
71 18 1
71 19 5
71 20 5
71 21 4
71 22 3
71 23 4
71 24 4
71 25 2
71 26 1
71 27 2
71 28 1
71 29 1
71 30 5
71 31 3
71 32 2
71 33 2
71 34 5
71 35 5
71 36 5
71 37 4
71 38 3
71 39 1
71 40 2
71 41 5
71 42 4
71 43 2
71 44 1
71 45 4
71 46 1
71 47 3
71 48 1
71 49 5
71 50 3
71 51 2
71 52 1
71 53 4
71 54 3
71 55 1
71 56 4
71 57 5
71 58 5
71 59 4
71 60 1
71 61 4
71 62 3
71 63 2
71 64 1
71 65 4
71 66 2
71 67 5
71 68 2
71 69 1
71 70 3
72 0 2
72 1 5
72 2 2
72 3 1
72 4 1
72 5 3
72 6 1
72 7 1
72 8 1
72 9 3
72 10 3
72 11 5
72 12 5
72 13 3
72 14 1
72 15 3
72 16 1
72 17 2
72 18 4
72 19 1
72 20 1
72 21 1
72 22 1
72 23 3
72 24 3
72 25 1
72 26 5
72 27 1
72 28 3
72 29 5
72 30 2
72 31 3
72 32 5
72 33 2
72 34 4
72 35 4
72 36 3
72 37 1
72 38 3
72 39 4
72 40 5
72 41 5
72 42 5
72 43 4
72 44 5
72 45 5
72 46 5
72 47 4
72 48 1
72 49 2
72 50 2
72 51 5
72 52 2
72 53 2
72 54 4
72 55 4
72 56 3
72 57 3
72 58 1
72 59 5
72 60 1
72 61 2
72 62 3
72 63 3
72 64 4
72 65 3
72 66 1
72 67 2
72 68 4
72 69 5
72 70 4
72 71 3
73 0 4
73 1 4
73 2 5
73 3 4
73 4 2
73 5 1
73 6 4
73 7 5
73 8 5
73 9 5
73 10 5
73 11 5
73 12 5
73 13 5
73 14 1
73 15 3
73 16 4
73 17 3
73 18 2
73 19 5
73 20 5
73 21 5
73 22 3
73 23 1
73 24 3
73 25 2
73 26 5
73 27 2
73 28 1
73 29 3
73 30 2
73 31 5
73 32 2
73 33 4
73 34 2
73 35 3
73 36 2
73 37 3
73 38 1
73 39 3
73 40 4
73 41 3
73 42 1
73 43 2
73 44 3
73 45 5
73 46 3
73 47 2
73 48 1
73 49 3
73 50 2
73 51 5
73 52 1
73 53 1
73 54 1
73 55 4
73 56 1
73 57 3
73 58 2
73 59 2
73 60 5
73 61 4
73 62 1
73 63 2
73 64 1
73 65 2
73 66 5
73 67 1
73 68 3
73 69 2
73 70 5
73 71 5
73 72 1
74 0 3
74 1 5
74 2 4
74 3 3
74 4 1
74 5 5
74 6 2
74 7 1
74 8 5
74 9 3
74 10 1
74 11 2
74 12 5
74 13 4
74 14 3
74 15 5
74 16 5
74 17 3
74 18 1
74 19 1
74 20 3
74 21 1
74 22 4
74 23 5
74 24 2
74 25 4
74 26 1
74 27 1
74 28 2
74 29 2
74 30 2
74 31 3
74 32 2
74 33 5
74 34 4
74 35 2
74 36 1
74 37 5
74 38 4
74 39 5
74 40 2
74 41 4
74 42 2
74 43 2
74 44 4
74 45 4
74 46 4
74 47 2
74 48 3
74 49 5
74 50 4
74 51 5
74 52 2
74 53 5
74 54 3
74 55 2
74 56 2
74 57 3
74 58 3
74 59 3
74 60 2
74 61 2
74 62 4
74 63 5
74 64 1
74 65 1
74 66 5
74 67 3
74 68 3
74 69 3
74 70 3
74 71 4
74 72 2
74 73 2
